Minimize

y_0


Subject To

a0: 1 x_0_1 + 8 x_0_2 + 7 x_0_3 + 6 x_0_4 + 5 x_0_5 + 4 x_0_6 + 3 x_0_7 + 2 x_0_8 + 1 x_0_9 + 2 x_0_10 + 3 x_0_11 + 4 x_0_12 + 1 x_0_13 + 2 x_0_14 + 3 x_0_15 + 4 x_0_16 + 5 x_0_17 + 6 x_0_18 + 7 x_0_19 + 1 x_0_20 - y_0 <= 0
a1: 6 x_1_1 + 7 x_1_2 + 1 x_1_3 + 2 x_1_4 + 1 x_1_5 + 2 x_1_6 + 3 x_1_7 + 4 x_1_8 + 5 x_1_9 + 6 x_1_10 + 5 x_1_11 + 6 x_1_12 + 7 x_1_13 + 2 x_1_14 + 2 x_1_15 + 1 x_1_16 + 2 x_1_17 + 3 x_1_18 + 4 x_1_19 + 5 x_1_20 - y_0 <= 0
a2: 1 x_2_1 + 9 x_2_2 + 2 x_2_3 + 8 x_2_4 + 3 x_2_5 + 7 x_2_6 + 4 x_2_7 + 6 x_2_8 + 5 x_2_9 + 5 x_2_10 + 6 x_2_11 + 4 x_2_12 + 7 x_2_13 + 3 x_2_14 + 1 x_2_15 + 2 x_2_16 + 9 x_2_17 + 1 x_2_18 + 2 x_2_19 + 8 x_2_20 - y_0 <= 0
a3: 9 x_3_1 + 1 x_3_2 + 8 x_3_3 + 2 x_3_4 + 7 x_3_5 + 3 x_3_6 + 6 x_3_7 + 4 x_3_8 + 5 x_3_9 + 5 x_3_10 + 4 x_3_11 + 6 x_3_12 + 3 x_3_13 + 7 x_3_14 + 2 x_3_15 + 2 x_3_16 + 1 x_3_17 + 9 x_3_18 + 8 x_3_19 + 2 x_3_20 - y_0 <= 0
a4: 1 x_4_1 + 1 x_4_2 + 2 x_4_3 + 2 x_4_4 + 3 x_4_5 + 3 x_4_6 + 4 x_4_7 + 4 x_4_8 + 5 x_4_9 + 5 x_4_10 + 6 x_4_11 + 6 x_4_12 + 7 x_4_13 + 7 x_4_14 + 1 x_4_15 + 1 x_4_16 + 5 x_4_17 + 9 x_4_18 + 1 x_4_19 + 1 x_4_20 - y_0 <= 0
a5: 1 x_5_1 + 1 x_5_2 + 2 x_5_3 + 2 x_5_4 + 3 x_5_5 + 3 x_5_6 + 4 x_5_7 + 4 x_5_8 + 5 x_5_9 + 5 x_5_10 + 6 x_5_11 + 6 x_5_12 + 7 x_5_13 + 7 x_5_14 + 8 x_5_15 + 8 x_5_16 + 4 x_5_17 + 2 x_5_18 + 3 x_5_19 + 4 x_5_20 - y_0 <= 0
a6: 1 x_6_1 + 3 x_6_2 + 5 x_6_3 + 7 x_6_4 + 1 x_6_5 + 2 x_6_6 + 4 x_6_7 + 6 x_6_8 + 8 x_6_9 + 1 x_6_10 + 3 x_6_11 + 5 x_6_12 + 7 x_6_13 + 9 x_6_14 + 2 x_6_15 + 4 x_6_16 + 6 x_6_17 + 8 x_6_18 + 1 x_6_19 + 3 x_6_20 - y_0 <= 0
a7: 9 x_7_1 + 8 x_7_2 + 7 x_7_3 + 6 x_7_4 + 5 x_7_5 + 4 x_7_6 + 3 x_7_7 + 2 x_7_8 + 1 x_7_9 + 2 x_7_10 + 3 x_7_11 + 4 x_7_12 + 5 x_7_13 + 6 x_7_14 + 7 x_7_15 + 1 x_7_16 + 1 x_7_17 + 2 x_7_18 + 7 x_7_19 + 6 x_7_20 - y_0 <= 0
a8: 5 x_8_1 + 4 x_8_2 + 4 x_8_3 + 3 x_8_4 + 3 x_8_5 + 2 x_8_6 + 2 x_8_7 + 1 x_8_8 + 1 x_8_9 + 2 x_8_10 + 1 x_8_11 + 2 x_8_12 + 1 x_8_13 + 2 x_8_14 + 1 x_8_15 + 7 x_8_16 + 7 x_8_17 + 6 x_8_18 + 6 x_8_19 + 5 x_8_20 - y_0 <= 0
a9: 3 x_9_1 + 1 x_9_2 + 2 x_9_3 + 2 x_9_4 + 1 x_9_5 + 3 x_9_6 + 7 x_9_7 + 7 x_9_8 + 2 x_9_9 + 3 x_9_10 + 6 x_9_11 + 6 x_9_12 + 2 x_9_13 + 2 x_9_14 + 5 x_9_15 + 5 x_9_16 + 4 x_9_17 + 3 x_9_18 + 2 x_9_19 + 1 x_9_20 - y_0 <= 0
b0: x_0_1 + x_1_1 + x_2_1 + x_3_1 + x_4_1 + x_5_1 + x_6_1 + x_7_1 + x_8_1 + x_9_1 = 1
b1: x_0_2 + x_1_2 + x_2_2 + x_3_2 + x_4_2 + x_5_2 + x_6_2 + x_7_2 + x_8_2 + x_9_2 = 1
b2: x_0_3 + x_1_3 + x_2_3 + x_3_3 + x_4_3 + x_5_3 + x_6_3 + x_7_3 + x_8_3 + x_9_3 = 1
b3: x_0_4 + x_1_4 + x_2_4 + x_3_4 + x_4_4 + x_5_4 + x_6_4 + x_7_4 + x_8_4 + x_9_4 = 1
b4: x_0_5 + x_1_5 + x_2_5 + x_3_5 + x_4_5 + x_5_5 + x_6_5 + x_7_5 + x_8_5 + x_9_5 = 1
b5: x_0_6 + x_1_6 + x_2_6 + x_3_6 + x_4_6 + x_5_6 + x_6_6 + x_7_6 + x_8_6 + x_9_6 = 1
b6: x_0_7 + x_1_7 + x_2_7 + x_3_7 + x_4_7 + x_5_7 + x_6_7 + x_7_7 + x_8_7 + x_9_7 = 1
b7: x_0_8 + x_1_8 + x_2_8 + x_3_8 + x_4_8 + x_5_8 + x_6_8 + x_7_8 + x_8_8 + x_9_8 = 1
b8: x_0_9 + x_1_9 + x_2_9 + x_3_9 + x_4_9 + x_5_9 + x_6_9 + x_7_9 + x_8_9 + x_9_9 = 1
b9: x_0_10 + x_1_10 + x_2_10 + x_3_10 + x_4_10 + x_5_10 + x_6_10 + x_7_10 + x_8_10 + x_9_10 = 1
b10: x_0_11 + x_1_11 + x_2_11 + x_3_11 + x_4_11 + x_5_11 + x_6_11 + x_7_11 + x_8_11 + x_9_11 = 1
b11: x_0_12 + x_1_12 + x_2_12 + x_3_12 + x_4_12 + x_5_12 + x_6_12 + x_7_12 + x_8_12 + x_9_12 = 1
b12: x_0_13 + x_1_13 + x_2_13 + x_3_13 + x_4_13 + x_5_13 + x_6_13 + x_7_13 + x_8_13 + x_9_13 = 1
b13: x_0_14 + x_1_14 + x_2_14 + x_3_14 + x_4_14 + x_5_14 + x_6_14 + x_7_14 + x_8_14 + x_9_14 = 1
b14: x_0_15 + x_1_15 + x_2_15 + x_3_15 + x_4_15 + x_5_15 + x_6_15 + x_7_15 + x_8_15 + x_9_15 = 1
b15: x_0_16 + x_1_16 + x_2_16 + x_3_16 + x_4_16 + x_5_16 + x_6_16 + x_7_16 + x_8_16 + x_9_16 = 1
b16: x_0_17 + x_1_17 + x_2_17 + x_3_17 + x_4_17 + x_5_17 + x_6_17 + x_7_17 + x_8_17 + x_9_17 = 1
b17: x_0_18 + x_1_18 + x_2_18 + x_3_18 + x_4_18 + x_5_18 + x_6_18 + x_7_18 + x_8_18 + x_9_18 = 1
b18: x_0_19 + x_1_19 + x_2_19 + x_3_19 + x_4_19 + x_5_19 + x_6_19 + x_7_19 + x_8_19 + x_9_19 = 1
b19: x_0_20 + x_1_20 + x_2_20 + x_3_20 + x_4_20 + x_5_20 + x_6_20 + x_7_20 + x_8_20 + x_9_20 = 1




Binary

x_0_1 x_0_2 x_0_3 x_0_4 x_0_5 x_0_6 x_0_7 x_0_8 x_0_9 x_0_10 x_0_11 x_0_12 x_0_13 x_0_14 x_0_15 x_0_16 x_0_17 x_0_18 x_0_19 x_0_20 x_1_1 x_1_2 x_1_3 x_1_4 x_1_5 x_1_6 x_1_7 x_1_8 x_1_9 x_1_10 x_1_11 x_1_12 x_1_13 x_1_14 x_1_15 x_1_16 x_1_17 x_1_18 x_1_19 x_1_20 x_2_1 x_2_2 x_2_3 x_2_4 x_2_5 x_2_6 x_2_7 x_2_8 x_2_9 x_2_10 x_2_11 x_2_12 x_2_13 x_2_14 x_2_15 x_2_16 x_2_17 x_2_18 x_2_19 x_2_20 x_3_1 x_3_2 x_3_3 x_3_4 x_3_5 x_3_6 x_3_7 x_3_8 x_3_9 x_3_10 x_3_11 x_3_12 x_3_13 x_3_14 x_3_15 x_3_16 x_3_17 x_3_18 x_3_19 x_3_20 x_4_1 x_4_2 x_4_3 x_4_4 x_4_5 x_4_6 x_4_7 x_4_8 x_4_9 x_4_10 x_4_11 x_4_12 x_4_13 x_4_14 x_4_15 x_4_16 x_4_17 x_4_18 x_4_19 x_4_20 x_5_1 x_5_2 x_5_3 x_5_4 x_5_5 x_5_6 x_5_7 x_5_8 x_5_9 x_5_10 x_5_11 x_5_12 x_5_13 x_5_14 x_5_15 x_5_16 x_5_17 x_5_18 x_5_19 x_5_20 x_6_1 x_6_2 x_6_3 x_6_4 x_6_5 x_6_6 x_6_7 x_6_8 x_6_9 x_6_10 x_6_11 x_6_12 x_6_13 x_6_14 x_6_15 x_6_16 x_6_17 x_6_18 x_6_19 x_6_20 x_7_1 x_7_2 x_7_3 x_7_4 x_7_5 x_7_6 x_7_7 x_7_8 x_7_9 x_7_10 x_7_11 x_7_12 x_7_13 x_7_14 x_7_15 x_7_16 x_7_17 x_7_18 x_7_19 x_7_20 x_8_1 x_8_2 x_8_3 x_8_4 x_8_5 x_8_6 x_8_7 x_8_8 x_8_9 x_8_10 x_8_11 x_8_12 x_8_13 x_8_14 x_8_15 x_8_16 x_8_17 x_8_18 x_8_19 x_8_20 x_9_1 x_9_2 x_9_3 x_9_4 x_9_5 x_9_6 x_9_7 x_9_8 x_9_9 x_9_10 x_9_11 x_9_12 x_9_13 x_9_14 x_9_15 x_9_16 x_9_17 x_9_18 x_9_19 x_9_20

 
End
